data/MCDM/NO_CORR/GEN_FROM_60/14_ITEMS_1000_GEN/K5014W14.KNP.txt
N 14
M 15
LC 14
LC 15
LC 16
LC 17
LC 18
LC 19
LC 20
LC 21
LC 22
LC 23
LC 24
LC 25
LC 26
LC 27
LR 1
LR 2
LR 3
LR 4
LR 5
LR 6
LR 7
LR 8
LR 9
LR 10
LR 11
LR 12
LR 13
LR 14
LR 15
LO -118
LO -260
LO -671
LO -491
LO -987
LO -28
LO -505
LO -420
LO -518
LO -837
LO -163
LO -694
LO -480
LO -419
OS 1
IC 256
IC 765
IC 294
IC 962
IC 618
IC 706
IC 635
IC 804
IC 12
IC 402
IC 980
IC 643
IC 218
IC 631
IB 3963
